c WARNING: for repeatability, setting FPU to use double precision
d VARIABLES            222532       
d CONSTRAINTS          965885       
c ============================[ Problem Statistics ]=============================
c |                                                                             |
c |  Number of variables:        222532                                         |
c |  Number of clauses:          965885                                         |
c |  Parse time:                   0.15 s                                       |
c |                                                                             |
c ============================[ Search Statistics ]==============================
c | Conflicts |          ORIGINAL         |          LEARNT          | Progress |
c |           |    Vars  Clauses Literals |    Limit  Clauses Lit/Cl |          |
c ===============================================================================
c |       100 |  183067   863859  2095785 |   316748      100     54 | 17.735 % |
c |       250 |  183067   863859  2095785 |   348423      250     67 | 17.735 % |
c |       475 |  183067   863859  2095785 |   383265      475     67 | 17.735 % |
c |       812 |  183067   863859  2095785 |   421591      812    100 | 17.735 % |
c |      1318 |  183066   863847  2095756 |   463751     1312     86 | 17.735 % |
c |      2077 |  183066   863847  2095756 |   510126     2071     92 | 17.735 % |
c |      3216 |  183066   863847  2095756 |   561138     3210    111 | 17.735 % |
c |      4924 |  183066   863847  2095756 |   617252     4918    112 | 17.735 % |
c |      7486 |  183066   863847  2095756 |   678978     7480    147 | 17.735 % |
c |     11330 |  183066   863847  2095756 |   746875    11324    155 | 17.735 % |
c |     17096 |  183065   863837  2095732 |   821563    17089    189 | 17.735 % |
c |     25745 |  183064   863827  2095708 |   903719    25733    177 | 17.736 % |
c |     38719 |  183057   863743  2095505 |   994091    38671    181 | 17.739 % |
c ===============================================================================
c restarts              : 127
c conflicts             : 44608          (1600 /sec)
c decisions             : 340711         (0.00 % random) (12223 /sec)
c propagations          : 137886990      (4946842 /sec)
c conflict literals     : 7548935        (17.03 % deleted)
d RESTARTS             127
d FAILURES             44608        
d NODES                340711       
d BACKTRACKS           340711       
d PROPAGATIONS         137886990    
d NOGOODSIZE           169.23 
d MEMORY               114.00 
d TIME                 27.8737 

s UNSATISFIABLE
